experiment/data/hgs-res/Vrp-Set-X-n134/Vrp-Set-X-n134-hgs/0.hgs1.vrp
NAME : 0
COMMENT : CVRP Instance
TYPE : CVRP
DIMENSION : 134
EDGE_WEIGHT_TYPE : EUC_2D
CAPACITY : 643
NODE_COORD_SECTION
1	113.0	195.0
2	377.0	239.0
3	364.0	39.0
4	306.0	316.0
5	795.0	18.0
6	560.0	115.0
7	501.0	147.0
8	704.0	68.0
9	762.0	62.0
10	357.0	33.0
11	359.0	353.0
12	314.0	186.0
13	338.0	303.0
14	522.0	80.0
15	291.0	58.0
16	735.0	15.0
17	324.0	12.0
18	275.0	278.0
19	409.0	32.0
20	279.0	297.0
21	844.0	27.0
22	447.0	303.0
23	796.0	4.0
24	735.0	111.0
25	373.0	461.0
26	385.0	100.0
27	281.0	378.0
28	793.0	7.0
29	965.0	64.0
30	347.0	256.0
31	742.0	75.0
32	339.0	244.0
33	334.0	391.0
34	323.0	314.0
35	345.0	69.0
36	295.0	370.0
37	462.0	240.0
38	426.0	446.0
39	286.0	335.0
40	374.0	34.0
41	201.0	153.0
42	356.0	74.0
43	767.0	236.0
44	450.0	218.0
45	789.0	61.0
46	467.0	332.0
47	437.0	293.0
48	357.0	21.0
49	386.0	207.0
50	389.0	234.0
51	281.0	344.0
52	312.0	3.0
53	317.0	163.0
54	582.0	186.0
55	301.0	411.0
56	822.0	6.0
57	197.0	437.0
58	386.0	268.0
59	294.0	74.0
60	425.0	55.0
61	279.0	81.0
62	382.0	251.0
63	351.0	385.0
64	701.0	32.0
65	384.0	214.0
66	866.0	243.0
67	546.0	186.0
68	815.0	29.0
69	734.0	57.0
70	377.0	235.0
71	793.0	31.0
72	392.0	248.0
73	308.0	314.0
74	396.0	27.0
75	250.0	345.0
76	903.0	66.0
77	266.0	264.0
78	580.0	142.0
79	191.0	288.0
80	408.0	225.0
81	297.0	283.0
82	733.0	38.0
83	312.0	293.0
84	180.0	250.0
85	764.0	45.0
86	351.0	284.0
87	321.0	318.0
88	208.0	348.0
89	451.0	423.0
90	365.0	142.0
91	487.0	175.0
92	267.0	51.0
93	346.0	248.0
94	575.0	294.0
95	585.0	346.0
96	199.0	136.0
97	485.0	24.0
98	542.0	109.0
99	813.0	117.0
100	442.0	280.0
101	212.0	192.0
102	344.0	170.0
103	574.0	426.0
104	325.0	343.0
105	426.0	272.0
106	349.0	90.0
107	389.0	302.0
108	769.0	51.0
109	489.0	165.0
110	174.0	288.0
111	285.0	419.0
112	434.0	257.0
113	376.0	210.0
114	400.0	124.0
115	320.0	191.0
116	304.0	260.0
117	339.0	138.0
118	390.0	222.0
119	129.0	47.0
120	376.0	262.0
121	416.0	240.0
122	688.0	80.0
123	289.0	193.0
124	270.0	418.0
125	322.0	311.0
126	303.0	228.0
127	829.0	13.0
128	315.0	212.0
129	266.0	239.0
130	326.0	136.0
131	287.0	298.0
132	319.0	176.0
133	79.0	221.0
134	323.0	291.0
DEMAND_SECTION
1	0
2	53
3	73
4	60
5	20
6	23
7	3
8	46
9	28
10	84
11	72
12	64
13	100
14	10
15	74
16	29
17	87
18	95
19	51
20	67
21	17
22	51
23	33
24	12
25	85
26	54
27	79
28	26
29	26
30	58
31	35
32	99
33	97
34	73
35	93
36	54
37	56
38	89
39	86
40	85
41	79
42	60
43	9
44	98
45	23
46	78
47	53
48	92
49	53
50	80
51	54
52	89
53	94
54	47
55	73
56	45
57	90
58	71
59	65
60	77
61	99
62	91
63	91
64	28
65	61
66	26
67	7
68	19
69	12
70	70
71	12
72	52
73	52
74	84
75	89
76	37
77	59
78	42
79	99
80	56
81	64
82	29
83	54
84	73
85	34
86	69
87	95
88	89
89	67
90	63
91	74
92	66
93	92
94	13
95	34
96	95
97	90
98	22
99	16
100	93
101	71
102	83
103	49
104	85
105	73
106	93
107	59
108	39
109	56
110	55
111	55
112	73
113	90
114	74
115	95
116	80
117	70
118	74
119	77
120	89
121	64
122	12
123	74
124	77
125	69
126	85
127	40
128	57
129	53
130	62
131	76
132	72
133	66
134	78
DEPOT_SECTION
1
-1
EOF
