experiment/data/hgs-res/Vrp-Set-X-n134/Vrp-Set-X-n134-hgs/0.hgs1.tour
Route #1: 118 91 51 16 14 60 95
Route #2: 47 9 2 39 73 18 96 59
Route #3: 58 34 41 105 25 113 89 116 129
Route #4: 13 63 15 81 84 107 70 4 27 22 55 126 20 67 44 8 30 68 7 121 5 97 6 108
Route #5: 100 122 11 114 131 101 52 40
Route #6: 90 66 53 77 23 98 75 28 65 42 93 94 102 88 37 24
Route #7: 31 92 1 69 49 117 64 48 127
Route #8: 112 79 43 36 111 120 71 61 29
Route #9: 85 106 45 21 46 99 104 57 119
Route #10: 128 125 115 80 130 19 17 109 132
Route #11: 3 72 86 33 124 12 133 82 76
Route #12: 83 38 50 35 26 74 87 78
Route #13: 103 10 62 32 54 110 123 56
Cost 10919.8
